CMD:
./solvers/bin/cadical --plain --no-reduce -t 1600 ./data/cnfs//abp4p2ff/abp4p2ff.61.cnf

c --- [ banner ] -------------------------------------------------------------
c 
c CaDiCaL SAT Solver
c Copyright (c) 2016-2024
c A. Biere, M. Fleury, N. Froleyks, K. Fazekas, F. Pollitt, T. Faller
c JKU Linz, University of Freiburg, TU Wien
c 
c Version 2.1.3 5296d3d2a9bf48c154ab2acb5e44625776d821bf
c g++ (Gentoo 12.3.1_p20230526 p2) 12.3.1 20230526 -Wall -Wextra -O3 -DNDEBUG
c Sat Aug 9 07:26:21 PDT 2025 Linux cedar2.int.cedar.computecanada.ca 5.14.0-362.24.2.el9_3.x86_64 x86_64
c 
c --- [ limit ] --------------------------------------------------------------
c 
c setting time limit to 1600 seconds real time (due to '-t 1600')
c 
c --- [ parsing input ] ------------------------------------------------------
c 
c reading DIMACS file from './data/cnfs//abp4p2ff/abp4p2ff.61.cnf'
c opening file to read './data/cnfs//abp4p2ff/abp4p2ff.61.cnf'
c found 'p cnf 55131 154459' header
c parsed 154459 clauses in 0.02 seconds process time
c 
c --- [ options ] ------------------------------------------------------------
c 
c   --compact=false                (different from default 'true')
c   --decompose=false              (different from default 'true')
c   --deduplicate=false            (different from default 'true')
c   --elim=false                   (different from default 'true')
c   --probe=false                  (different from default 'true')
c   --reduce=false                 (different from default 'true')
c   --subsume=false                (different from default 'true')
c   --ternary=false                (different from default 'true')
c   --transred=false               (different from default 'true')
c   --vivify=false                 (different from default 'true')
c 
c --- [ solving ] ------------------------------------------------------------
c 
c time measured in process time since initialization
c 
c  seconds  reductions  redundant  irredundant
c         MB    restarts       trail       variables
c          level   conflicts       glue         remaining
c 
c *  0.02 28  0 0   0    0    0  0% 0 150351 41277 75%
c {  0.03 28  0 0   0    0    0  0% 0 150351 41277 75%
c i  0.03 28  1 0   0    1    0 27% 0 150351 41276 75%
c i  0.03 28 69 0   0    5    3 28% 1 150351 41275 75%
c i  0.03 28 84 0   0   22   19 28% 2 150351 41274 75%
c i  0.07 29 161 0  81  780  750 51% 2 150351 41273 75%
c }  0.08 29 158 0 111 1000  947 52% 2 150351 41273 75%
c [  0.08 29  0 0 111 1000  947  0% 0 150351 41273 75%
c O  0.08 29 41 0 111 1002  949 29% 2 150351 41273 75%
c i  0.08 29  8 0 111 1015  957 26% 2 150351 41272 75%
c i  0.08 29  7 0 111 1021  960 26% 2 150351 41265 75%
c ]  0.11 29 349 0 111 1729 1655 79% 3 150351 41265 75%
c 1  0.11 29 349 0 111 1729 1655 79% 3 150351 41265 75%
c 
c --- [ result ] -------------------------------------------------------------
c 
s SATISFIABLE
v -1 -2 -3 -4 5 6 7 8 9 10 11 12 13 14 15 16 17 18 19 -20 21 22 -23 24 25 26
v 27 28 29 30 31 32 33 34 35 36 37 38 39 40 41 -42 43 44 45 46 47 48 49 50 51
v 52 53 54 55 56 57 -58 -59 -60 -61 -62 -63 -64 -65 -66 -67 -68 -69 -70 -71
v -72 -73 -74 -75 -76 -77 -78 -79 -80 -81 -82 -83 -84 -85 -86 -87 -88 -89 -90
v -91 -92 -93 -94 -95 -96 -97 -98 -99 -100 -101 -102 -103 -104 -105 -106 -107
v -108 -109 -110 -111 -112 -113 -114 -115 -116 -117 -118 -119 -120 -121 -122
v -123 -124 -125 -126 -127 -128 -129 -130 -131 -132 -133 -134 -135 -136 137
v -138 139 140 -141 142 -143 -144 -145 -146 147 -148 -149 150 -151 -152 153
v -154 155 -156 -157 -158 159 -160 -161 -162 -163 164 -165 -166 -167 168 -169
v -170 -171 -172 173 -174 -175 176 -177 -178 -179 -180 181 -182 -183 -184 185
v -186 -187 -188 189 -190 191 192 -193 -194 195 -196 -197 -198 -199 200 201
v -202 -203 -204 205 -206 -207 -208 -209 -210 211 -212 213 -214 215 216 -217
v -218 -219 220 -221 222 -223 -224 225 226 -227 228 -229 -230 231 -232 -233
v -234 -235 236 -237 238 -239 -240 241 -242 -243 -244 245 -246 -247 248 -249
v 250 -251 -252 -253 -254 -255 -256 257 -258 -259 260 261 262 -263 -264 265
v -266 267 -268 269 -270 -271 -272 -273 274 -275 -276 -277 -278 -279 -280 -281
v 282 -283 284 285 -286 -287 288 -289 -290 -291 -292 293 294 -295 -296 -297
v -298 -299 300 -301 302 -303 304 305 -306 -307 -308 309 -310 311 -312 -313
v 314 315 -316 317 -318 319 -320 -321 322 -323 -324 325 -326 -327 328 -329
v -330 331 -332 -333 334 -335 336 -337 -338 339 -340 -341 -342 -343 -344 -345
v 346 -347 -348 -349 350 -351 -352 -353 -354 355 356 -357 -358 359 360 -361
v -362 -363 -364 -365 366 367 -368 -369 -370 -371 372 -373 374 -375 -376 -377
v -378 379 -380 -381 382 -383 384 -385 -386 -387 388 -389 -390 -391 -392 393
v -394 395 -396 397 -398 -399 400 -401 402 -403 404 -405 -406 407 408 -409
v -410 -411 -412 -413 -414 415 416 417 418 -419 420 -421 -422 423 -424 -425
v -426 -427 -428 -429 -430 -431 -432 -433 -434 -435 -436 -437 -438 -439 -440
v -441 -442 443 444 445 446 447 448 449 450 -451 -452 -453 454 -455 -456 457
v -458 -459 -460 -461 462 -463 -464 -465 466 -467 -468 469 -470 -471 -472 -473
v 474 -475 -476 -477 478 -479 -480 481 -482 -483 -484 -485 486 -487 -488 -489
v 490 -491 -492 493 -494 -495 -496 -497 498 -499 -500 -501 502 -503 504 -505
v -506 -507 -508 -509 510 -511 -512 -513 514 -515 516 -517 -518 -519 -520 -521
v 522 -523 -524 -525 526 -527 528 -529 -530 -531 -532 -533 534 -535 -536 -537
v 538 -539 540 -541 -542 -543 -544 -545 546 -547 -548 549 -550 551 -552 -553
v -554 -555 556 -557 -558 559 -560 561 -562 -563 -564 -565 566 -567 -568 569
v -570 571 -572 -573 -574 -575 576 -577 -578 579 -580 581 -582 -583 -584 -585
v 586 -587 -588 -589 -590 591 -592 -593 594 -595 -596 -597 598 -599 -600 -601
v 602 -603 -604 605 -606 -607 608 -609 -610 -611 612 -613 -614 615 -616 -617
... skipped 4716 lines ...
v 54559 -54560 -54561 -54562 -54563 54564 -54565 -54566 54567 -54568 -54569
v 54570 54571 -54572 -54573 -54574 54575 -54576 54577 -54578 54579 -54580
v 54581 -54582 54583 54584 -54585 -54586 54587 -54588 -54589 54590 -54591
v -54592 54593 -54594 -54595 54596 -54597 -54598 54599 -54600 54601 -54602
v 54603 54604 -54605 54606 -54607 -54608 -54609 54610 -54611 -54612 -54613
v -54614 54615 54616 -54617 -54618 54619 54620 54621 54622 -54623 -54624 54625
v 54626 -54627 -54628 -54629 54630 54631 -54632 -54633 -54634 -54635 54636
v -54637 54638 54639 -54640 -54641 54642 54643 -54644 -54645 54646 54647
v -54648 -54649 54650 54651 -54652 -54653 54654 54655 -54656 -54657 54658
v 54659 -54660 -54661 54662 54663 -54664 -54665 54666 54667 -54668 -54669
v 54670 54671 -54672 -54673 54674 54675 -54676 -54677 54678 54679 -54680
v -54681 54682 54683 -54684 -54685 54686 54687 -54688 -54689 54690 54691
v -54692 -54693 54694 54695 -54696 -54697 54698 54699 -54700 -54701 54702
v 54703 -54704 -54705 -54706 -54707 54708 -54709 54710 54711 -54712 -54713
v 54714 54715 -54716 -54717 54718 54719 -54720 -54721 -54722 -54723 54724
v -54725 54726 54727 -54728 -54729 54730 54731 -54732 -54733 54734 54735
v -54736 -54737 54738 54739 -54740 -54741 54742 54743 -54744 -54745 54746
v 54747 -54748 -54749 54750 54751 -54752 -54753 54754 54755 -54756 -54757
v 54758 54759 -54760 -54761 54762 54763 -54764 -54765 54766 54767 -54768
v -54769 54770 54771 -54772 -54773 54774 54775 -54776 -54777 54778 54779
v -54780 -54781 54782 54783 -54784 -54785 54786 54787 -54788 -54789 54790
v 54791 -54792 -54793 54794 54795 -54796 -54797 54798 54799 -54800 -54801
v 54802 54803 -54804 -54805 54806 54807 -54808 -54809 54810 54811 -54812
v -54813 54814 54815 -54816 -54817 54818 54819 -54820 -54821 54822 54823
v -54824 -54825 54826 54827 -54828 -54829 54830 54831 -54832 -54833 54834
v 54835 -54836 -54837 54838 54839 -54840 -54841 54842 54843 -54844 -54845
v 54846 54847 -54848 -54849 -54850 -54851 54852 -54853 54854 54855 -54856
v -54857 -54858 -54859 54860 -54861 54862 54863 -54864 -54865 -54866 -54867
v 54868 -54869 54870 54871 -54872 -54873 -54874 -54875 54876 -54877 54878
v 54879 -54880 -54881 54882 54883 -54884 -54885 54886 -54887 -54888 54889
v 54890 -54891 -54892 54893 54894 -54895 -54896 54897 -54898 -54899 54900
v 54901 -54902 -54903 54904 54905 -54906 -54907 54908 -54909 -54910 54911
v 54912 -54913 -54914 54915 54916 -54917 -54918 54919 -54920 -54921 54922
v 54923 -54924 -54925 54926 54927 54928 -54929 -54930 -54931 54932 -54933
v -54934 54935 54936 -54937 -54938 54939 54940 54941 -54942 -54943 -54944
v 54945 -54946 -54947 54948 54949 -54950 -54951 54952 54953 54954 -54955
v -54956 -54957 54958 -54959 -54960 54961 54962 -54963 -54964 54965 54966
v 54967 -54968 -54969 -54970 54971 -54972 -54973 54974 54975 -54976 -54977
v 54978 54979 -54980 54981 54982 -54983 -54984 -54985 -54986 54987 54988
v -54989 -54990 54991 54992 -54993 54994 54995 -54996 -54997 -54998 -54999
v 55000 55001 -55002 -55003 55004 55005 -55006 55007 55008 -55009 -55010
v -55011 -55012 55013 55014 -55015 -55016 55017 55018 -55019 55020 55021
v -55022 -55023 -55024 -55025 55026 -55027 -55028 55029 -55030 55031 -55032
v 55033 -55034 55035 -55036 55037 -55038 55039 -55040 55041 -55042 55043 55044
v 55045 55046 55047 55048 55049 55050 55051 -55052 -55053 55054 -55055 -55056
v -55057 -55058 -55059 55060 -55061 -55062 -55063 55064 -55065 -55066 -55067
v 55068 55069 -55070 -55071 55072 -55073 -55074 55075 55076 55077 -55078
v -55079 55080 -55081 -55082 55083 55084 55085 55086 55087 -55088 -55089 55090
v -55091 -55092 55093 55094 55095 55096 55097 55098 -55099 55100 -55101 55102
v -55103 55104 -55105 55106 55107 55108 55109 55110 -55111 -55112 55113 55114
v 55115 -55116 55117 -55118 -55119 -55120 55121 -55122 -55123 -55124 -55125
v 55126 55127 -55128 55129 55130 -55131 0
c 
c --- [ run-time profiling ] -------------------------------------------------
c 
c process time taken by individual solving procedures
c (percentage relative to process time for solving)
c 
c         0.08   99.90% search
c         0.05   65.43% unstable
c         0.03   31.79% stable
c         0.02   29.98% parse
c         0.00    2.61% lucky
c         0.00    0.00% simplify
c   =================================
c         0.08   74.80% solve
c 
c last line shows process time for solving
c (percentage relative to total process time)
c 
c --- [ statistics ] ---------------------------------------------------------
c 
c chronological:               937        54.19 %  of conflicts
c conflicts:                  1729     21051.48    per second
c decisions:                 14654    178420.10    per second
c fixed:                     13866        25.15 %  of all variables
c learned:                    1687        97.57 %  per conflict
c learned_lits:              10388       100.00 %  learned literals
c minimized:                     0         0.00 %  learned literals
c shrunken:                    855         8.23 %  learned literals
c minishrunken:                529         5.09 %  learned literals
c otfs:                          6         0.35 %  of conflict
c propagations:            1389065        16.91 M  per second
c rephased:                      1      1729.00    interval
c restarts:                    111        15.58    interval
c stabilizing:                   1        42.16 %  of conflicts
c subsumed:                     26         0.02 %  of all clauses
c strengthened:                  6         0.00 %  of all clauses
c 
c seconds are measured in process time for solving
c 
c --- [ resources ] ----------------------------------------------------------
c 
c total process time since initialization:         0.11    seconds
c total real time since initialization:            0.11    seconds
c maximum resident set size of process:           34.61    MB
c 
c --- [ shutting down ] ------------------------------------------------------
c 
c exit 10
